NAME: line_60_0
TYPE: TSP
COMMENT: line_60_0
DIMENSION: 60
EDGE_WEIGHT_TYPE: EUC_2D
NODE_COORD_SECTION
1 0.0 159.0
2 0.0 397.0
3 0.0 515.0
4 0.0 433.0
5 0.0 441.0
6 0.0 509.0
7 0.0 365.0
8 0.0 198.0
9 0.0 126.0
10 0.0 528.0
11 0.0 322.0
12 0.0 10.0
13 0.0 312.0
14 0.0 67.0
15 0.0 59.0
16 0.0 104.0
17 0.0 534.0
18 0.0 168.0
19 0.0 457.0
20 0.0 591.0
21 0.0 234.0
22 0.0 187.0
23 0.0 263.0
24 0.0 479.0
25 0.0 30.0
26 0.0 86.0
27 0.0 239.0
28 0.0 300.0
29 0.0 416.0
30 0.0 316.0
31 0.0 442.0
32 0.0 307.0
33 0.0 167.0
34 0.0 11.0
35 0.0 349.0
36 0.0 2.0
37 0.0 529.0
38 0.0 392.0
39 0.0 353.0
40 0.0 316.0
41 0.0 478.0
42 0.0 95.0
43 0.0 108.0
44 0.0 552.0
45 0.0 378.0
46 0.0 142.0
47 0.0 207.0
48 0.0 168.0
49 0.0 119.0
50 0.0 212.0
51 0.0 551.0
52 0.0 590.0
53 0.0 151.0
54 0.0 132.0
55 0.0 18.0
56 0.0 108.0
57 0.0 417.0
58 0.0 525.0
59 0.0 140.0
60 0.0 419.0
